(set-info :smt-lib-version 2.6)
(set-logic QF_FP)
(set-info :source |Random FP created by PyMPF|)
(set-info :license |https://www.gnu.org/licenses/gpl-3.0.html|)
(set-info :category random)
(set-info :status unsat)
(declare-const x Float32)
(assert (= x ((_ to_fp 8 24) #x80000000)))
;; x should be Float32(-zero)

(declare-const y Float32)
(assert (= y ((_ to_fp 8 24) #x802F4F95)))
;; y should be Float32(0x802F4F95 [Rational(-3100565, 713623846352979940529142984724747568191373312), -0.000000])

(declare-const z Float32)
(assert (= z ((_ to_fp 8 24) #x7CF784A4)))
;; z should be Float32(0x7CF784A4 [Rational(10281500764355494272754871773559783424), 10281500764355494272754871773559783424.000000])

(declare-const result Float32)
(assert (= result (fp.fma RNA x y z)))
(assert (not (= result (fp #b0 #b11111001 #b11101111000010010100100))))
(check-sat)
(exit)
